;; produced by cvc5.drv ;;
(set-logic ALL)
(set-info :smt-lib-version 2.6)
;;; generated by SMT-LIB2 driver
;;; SMT-LIB2 driver: bit-vectors, common part
;;; SMT-LIB2: integer arithmetic
(declare-sort us_private 0)

(declare-const us_null_ext__ us_private)

(declare-sort integer 0)

;; "integer'int"
(declare-fun integerqtint (integer) Int)

;; "integer'axiom"
(assert
  (forall ((i integer))
    (and
      (<= (- 2147483648) (integerqtint i))
      (<= (integerqtint i) 2147483647))))

;; "in_range"
(define-fun in_range ((x Int)) Bool
  (and (<= (- 2147483648) x) (<= x 2147483647)))

;; "in_range"
(define-fun in_range1 ((x Int)) Bool
  (and (<= 1 x) (<= x 2147483647)))

(declare-sort character 0)

;; "in_range"
(define-fun in_range2 ((x Int)) Bool
  (and (<= 0 x) (<= x 255)))

;; "to_rep"
(declare-fun to_rep (character) Int)

;; "of_rep"
(declare-fun of_rep (Int) character)

;; "inversion_axiom"
(assert
  (forall ((x character))
    (! (= (of_rep (to_rep x)) x) :pattern ((to_rep x)) )))

;; "range_axiom"
(assert
  (forall ((x character)) (! (in_range2 (to_rep x)) :pattern ((to_rep x)) )))

;; "coerce_axiom"
(assert
  (forall ((x Int))
    (! (=> (in_range2 x) (= (to_rep (of_rep x)) x)) :pattern ((to_rep
                                                                (of_rep x))) )))

;; "to_rep"
(define-fun to_rep1 ((x integer)) Int
  (integerqtint x))

;; "of_rep"
(declare-fun of_rep1 (Int) integer)

;; "inversion_axiom"
(assert
  (forall ((x integer))
    (! (= (of_rep1 (to_rep1 x)) x) :pattern ((to_rep1 x)) )))

;; "range_axiom"
(assert
  (forall ((x integer)) (! (in_range (to_rep1 x)) :pattern ((to_rep1 x)) )))

;; "coerce_axiom"
(assert
  (forall ((x Int))
    (! (=> (in_range x) (= (to_rep1 (of_rep1 x)) x)) :pattern ((to_rep1
                                                                 (of_rep1 x))) )))

(declare-datatypes ((t 0))
  (((tqtmk (rec__first integer)(rec__last integer)))))

;; "dynamic_property"
(define-fun dynamic_property ((range_first Int) (range_last Int) (low Int) (high Int)) Bool
  (and
    (in_range low)
    (and
      (in_range high)
      (=> (<= low high) (and (in_range1 low) (in_range1 high))))))

(declare-datatypes ((us_t 0))
  (((us_tqtmk (elts (Array Int character))(rt t)))))

;; "first"
(define-fun first ((a us_t)) Int
  (to_rep1 (rec__first (rt a))))

;; "last"
(define-fun last ((a us_t)) Int
  (to_rep1 (rec__last (rt a))))

(declare-const value__size Int)

(declare-const object__size Int)

(declare-const component__size Int)

(declare-const alignment Int)

;; "value__size_axiom"
(assert (<= 0 value__size))

;; "object__size_axiom"
(assert (<= 0 object__size))

;; "component__size_axiom"
(assert (<= 0 component__size))

;; "alignment_axiom"
(assert (<= 0 alignment))

;; "dynamic_invariant"
(define-fun dynamic_invariant ((temp___expr_110 us_t) (temp___is_init_106 Bool) (temp___skip_constant_107 Bool) (temp___do_toplevel_108 Bool) (temp___do_typ_inv_109 Bool)) Bool
  (=>
    (not (= temp___skip_constant_107 true))
    (dynamic_property
      1
      2147483647
      (first temp___expr_110)
      (last temp___expr_110))))

(declare-sort us_rep 0)

(declare-const value__size1 Int)

(declare-const object__size1 Int)

(declare-const alignment1 Int)

;; "value__size_axiom"
(assert (<= 0 value__size1))

;; "object__size_axiom"
(assert (<= 0 object__size1))

;; "alignment_axiom"
(assert (<= 0 alignment1))

(declare-const dummy us_rep)

;; "status"
(declare-fun status (us_rep) Int)

;; "in_range"
(define-fun in_range3 ((x Int)) Bool
  (and (<= 0 x) (<= x 10)))

;; "is_open"
(declare-fun is_open (us_rep) Bool)

;; "in_range"
(define-fun in_range4 ((x Int)) Bool
  (and (<= 0 x) (<= x 2147483647)))

;; "line_length"
(declare-fun line_length (us_rep) Int)

;; "page_length"
(declare-fun page_length (us_rep) Int)

(declare-const item us_t)

;; "is_open__post_axiom"
(assert true)

;; "status__post_axiom"
(assert
  (forall ((param__file us_rep))
    (! (in_range3 (status param__file)) :pattern ((status param__file)) )))

;; Goal "def'vc"
;; File "spark-text_io.ads", line 703, characters 0-0
(assert
  (not
  (forall ((standard_output us_rep))
    (=>
      (dynamic_invariant item true false true true)
      (=>
        (= (status standard_output) 1)
        (=>
          (in_range4 (page_length standard_output))
          (=>
            (in_range4 (line_length standard_output))
            (= (is_open standard_output) true))))))))

(check-sat)
(get-info :reason-unknown)
